(set-info :smt-lib-version 2.6)
(set-logic QF_LIA)
(set-info :category "industrial")
(set-info :status sat)
(declare-fun x0 () Int)
(declare-fun x1 () Int)
(declare-fun x10 () Int)
(declare-fun x11 () Int)
(declare-fun x12 () Int)
(declare-fun x13 () Int)
(declare-fun x14 () Int)
(declare-fun x15 () Int)
(declare-fun x16 () Int)
(declare-fun x17 () Int)
(declare-fun x18 () Int)
(declare-fun x19 () Int)
(declare-fun x2 () Int)
(declare-fun x20 () Int)
(declare-fun x21 () Int)
(declare-fun x22 () Int)
(declare-fun x23 () Int)
(declare-fun x24 () Int)
(declare-fun x3 () Int)
(declare-fun x4 () Int)
(declare-fun x5 () Int)
(declare-fun x6 () Int)
(declare-fun x7 () Int)
(declare-fun x8 () Int)
(declare-fun x9 () Int)
(assert (let ((?v_0 (* 0 x0)) (?v_51 (* 0 x1)) (?v_6 (* 2 x10)) (?v_14 (* 0 x15)) (?v_36 (* 0 x16)) (?v_40 (* 0 x18)) (?v_27 (* 0 x22)) (?v_12 (* 0 x23)) (?v_48 (* 1 x21)) (?v_18 (* 0 x3)) (?v_1 (* 0 x5)) (?v_28 (* 0 x8)) (?v_2 (* 0 x10)) (?v_3 (* 0 x11)) (?v_15 (* 1 x22)) (?v_13 (* 0 x4)) (?v_31 (* 1 x3)) (?v_57 (* 0 x6)) (?v_4 (* 1 x9)) (?v_66 (* 1 x0)) (?v_19 (* 0 x13)) (?v_60 (* 0 x2)) (?v_22 (* 0 x20)) (?v_30 (* 0 x21)) (?v_16 (* 1 x23)) (?v_24 (* 1 x13)) (?v_33 (* 1 x18)) (?v_42 (* 1 x8)) (?v_29 (* 0 x12)) (?v_26 (* 0 x14)) (?v_34 (* 1 x5)) (?v_55 (* 1 x6)) (?v_38 (* 0 x7)) (?v_63 (* 1 x1)) (?v_52 (* 1 x15)) (?v_67 (* 2 x14)) (?v_54 (* 1 x20)) (?v_58 (* 1 x16)) (?v_32 (* 0 x9)) (?v_37 (* 1 x24)) (?v_41 (* 0 x19)) (?v_74 (* 1 x17))) (let ((?v_82 (+ ?v_38 ?v_42)) (?v_46 (* 1 x12)) (?v_47 (* 1 x14)) (?v_59 (* 1 x11)) (?v_53 (* 0 x17)) (?v_50 (* 1 x2)) (?v_64 (* 1 x7))) (let ((?v_76 (+ ?v_28 ?v_64)) (?v_69 (* 1 x19)) (?v_72 (* 1 x10)) (?v_79 (* 2 x9)) (?v_70 (+ ?v_64 ?v_4)) (?v_83 (* 1 x4)) (?v_81 (* 0 x24)) (?v_23 (* (- 1) x11)) (?v_43 (* (- 1) x20)) (?v_78 (* (- 1) x9)) (?v_5 (* (- 1) x1)) (?v_7 (* (- 1) x12)) (?v_39 (* (- 1) x14)) (?v_20 (* (- 1) x16)) (?v_9 (* (- 1) x17)) (?v_8 (* (- 2) x14)) (?v_68 (* (- 2) x16)) (?v_10 (* (- 1) x19)) (?v_11 (* (- 1) x24)) (?v_17 (* (- 1) x4)) (?v_25 (* (- 1) x18)) (?v_21 (* (- 1) x2)) (?v_61 (* (- 1) x8)) (?v_71 (* (- 2) x24)) (?v_65 (* (- 1) x21)) (?v_80 (* (- 1) x23)) (?v_35 (* (- 1) x6)) (?v_45 (* (- 1) x0)) (?v_44 (* (- 1) x22)) (?v_75 (* (- 2) x1)) (?v_56 (* (- 1) x5)) (?v_49 (* (- 1) x3)) (?v_73 (* (- 1) x13)) (?v_62 (* (- 1) x10)) (?v_77 (* (- 1) x15))) (and (<= (+ ?v_0 (+ ?v_51 (+ ?v_6 (+ ?v_23 (+ ?v_43 (+ ?v_14 (+ ?v_78 (+ ?v_36 (+ ?v_40 (+ (* (- 2) x19) (+ ?v_27 (+ ?v_12 (+ ?v_48 (+ ?v_18 (+ ?v_1 ?v_28))))))))))))))) 0) (<= (+ ?v_0 (+ ?v_5 (+ ?v_2 (+ ?v_3 (+ ?v_7 (+ ?v_39 (+ ?v_20 (+ ?v_9 (+ ?v_15 (+ (* 2 x21) (+ (* 2 x24) (+ ?v_13 (+ ?v_31 (+ ?v_1 (+ ?v_57 ?v_4))))))))))))))) 1) (<= (+ ?v_66 (+ ?v_2 (+ ?v_3 (+ ?v_19 (+ ?v_8 (+ ?v_68 (+ (* (- 2) x5) (+ ?v_10 (+ ?v_11 (+ ?v_17 (+ ?v_60 (+ ?v_22 (+ ?v_30 (+ ?v_16 ?v_4)))))))))))))) 1) (<= (+ ?v_0 (+ ?v_5 (+ ?v_6 (+ ?v_3 (+ ?v_7 (+ ?v_24 (+ ?v_8 (+ (* 2 x15) (+ ?v_9 (+ ?v_33 (+ ?v_10 (+ ?v_11 (+ ?v_12 (+ ?v_13 (+ ?v_1 ?v_42))))))))))))))) (- 1)) (<= (+ ?v_0 (+ ?v_2 (+ ?v_25 (+ ?v_29 (+ ?v_26 (+ ?v_14 (+ ?v_21 (+ ?v_11 (+ ?v_15 (+ ?v_16 (+ ?v_17 (+ ?v_18 (+ ?v_34 (+ ?v_55 (+ ?v_61 (+ ?v_38 ?v_4)))))))))))))))) 0) (<= (+ ?v_63 (+ ?v_2 (+ ?v_3 (+ (* (- 2) x12) (+ ?v_71 (+ ?v_19 (+ ?v_52 (+ ?v_20 (+ ?v_67 (+ ?v_21 (+ ?v_22 (+ ?v_13 (+ ?v_1 (* 2 x8)))))))))))))) 0) (<= (+ ?v_0 (+ ?v_5 (+ ?v_6 (+ ?v_23 (+ ?v_24 (+ ?v_25 (+ ?v_65 (+ ?v_11 (+ ?v_26 (+ ?v_54 (+ ?v_27 (+ ?v_12 (+ ?v_13 (+ ?v_58 (+ ?v_28 ?v_32))))))))))))))) 0) (<= (+ ?v_0 (+ ?v_80 (+ ?v_35 (+ ?v_3 (+ ?v_29 (+ ?v_26 (+ ?v_14 (+ ?v_30 (+ ?v_27 (+ ?v_37 (+ ?v_13 (+ ?v_31 (+ ?v_32 (+ ?v_33 (+ ?v_34 ?v_28))))))))))))))) 1) (<= (+ ?v_45 (+ ?v_5 (+ ?v_35 (+ ?v_2 (+ ?v_3 (+ ?v_14 (+ ?v_36 (+ ?v_22 (+ ?v_27 (+ ?v_33 (+ ?v_41 (+ ?v_16 (+ ?v_37 (+ ?v_31 (+ ?v_1 ?v_38))))))))))))))) (- 1)) (<= (+ (* (- 2) x4) (+ ?v_2 (+ ?v_23 (+ ?v_29 (+ ?v_39 (+ ?v_44 (+ ?v_11 (+ ?v_36 (+ ?v_40 (+ ?v_74 (+ ?v_41 (+ ?v_22 (+ ?v_16 (+ ?v_31 (+ ?v_34 ?v_82))))))))))))))) 0) (<= (+ (* 2 x0) (+ ?v_75 (+ ?v_3 (+ ?v_29 (+ ?v_24 (+ ?v_8 (+ ?v_43 (+ ?v_44 (+ ?v_35 (+ ?v_14 (+ (* 2 x17) (+ ?v_41 (+ ?v_30 (+ ?v_13 ?v_38)))))))))))))) 0) (<= (+ ?v_45 (+ ?v_20 (+ ?v_43 (+ ?v_3 (+ ?v_46 (+ ?v_56 (+ ?v_35 (+ ?v_47 (+ ?v_41 (+ ?v_30 (+ ?v_16 (+ ?v_18 (+ (* 3 x4) ?v_42))))))))))))) (- 1)) (<= (+ ?v_5 (+ ?v_49 (+ ?v_36 (+ ?v_59 (+ ?v_46 (+ ?v_53 (+ ?v_40 (+ ?v_12 (+ ?v_13 (+ ?v_32 (+ ?v_47 (+ ?v_41 (+ ?v_48 (+ ?v_37 (+ ?v_28 ?v_50))))))))))))))) 0) (<= (+ ?v_0 (+ ?v_20 (+ ?v_49 (+ ?v_17 (+ ?v_6 (+ ?v_3 (+ ?v_46 (+ ?v_24 (+ ?v_26 (+ ?v_14 (+ ?v_40 (+ ?v_41 (+ ?v_1 (+ ?v_50 ?v_4)))))))))))))) 1) (<= (+ ?v_45 (+ ?v_51 (+ ?v_2 (+ ?v_3 (+ ?v_19 (+ ?v_52 (+ (* 2 x12) (+ ?v_53 (+ ?v_33 (+ (* (- 2) x8) (+ ?v_41 (+ ?v_54 (+ ?v_48 (+ ?v_13 (+ ?v_1 ?v_50))))))))))))))) 1) (<= (+ ?v_73 (+ ?v_0 (+ (* (- 3) x23) (+ ?v_39 (+ ?v_14 (+ ?v_20 (+ ?v_40 (+ ?v_41 (+ ?v_22 (+ ?v_50 (+ ?v_31 (+ ?v_55 (+ ?v_4 (* 3 x8)))))))))))))) 1) (<= (+ ?v_43 (+ ?v_2 (+ ?v_3 (+ ?v_7 (+ ?v_24 (+ ?v_53 (+ ?v_30 (+ ?v_56 (+ ?v_57 (+ ?v_32 (+ ?v_47 (+ ?v_52 (+ ?v_58 (+ ?v_41 (+ ?v_15 ?v_76))))))))))))))) 1) (<= (+ ?v_51 (+ ?v_62 (+ ?v_59 (+ ?v_7 (+ ?v_8 (+ ?v_14 (+ ?v_20 (+ ?v_53 (+ ?v_40 (+ ?v_69 (+ ?v_60 (+ ?v_13 (+ ?v_31 (+ ?v_1 (+ ?v_38 (+ ?v_32 ?v_42)))))))))))))))) 0) (<= (+ ?v_0 (+ ?v_72 (+ ?v_3 (+ ?v_36 (+ ?v_40 (+ ?v_61 (+ ?v_60 (+ ?v_15 (+ ?v_37 (+ (* 2 x4) (+ ?v_38 ?v_32))))))))))) 1) (<= (+ ?v_0 (+ ?v_62 (+ ?v_43 (+ ?v_36 (+ ?v_46 (+ ?v_24 (+ ?v_26 (+ ?v_52 (+ ?v_60 (+ ?v_30 (+ ?v_15 (+ ?v_13 (+ ?v_1 (+ ?v_57 (* 4 x7))))))))))))))) (- 1)) (<= (+ ?v_63 (+ ?v_62 (+ ?v_23 (+ ?v_20 (+ ?v_53 (+ ?v_33 (+ ?v_10 (+ ?v_56 (+ ?v_60 (+ ?v_22 (+ ?v_48 (+ ?v_18 (+ ?v_57 (+ ?v_28 (+ ?v_64 ?v_79))))))))))))))) 1) (<= (+ ?v_2 (+ ?v_23 (+ ?v_29 (+ ?v_24 (+ ?v_39 (+ ?v_65 (+ ?v_44 (+ ?v_14 (+ ?v_53 (+ ?v_60 (+ ?v_13 (+ ?v_57 ?v_70)))))))))))) 0) (<= (+ ?v_66 (+ ?v_2 (+ (* (- 2) x11) (+ ?v_65 (+ ?v_14 (+ ?v_36 (+ ?v_12 (+ ?v_13 (+ ?v_46 (+ ?v_53 (+ ?v_56 (+ ?v_67 (+ ?v_60 ?v_64))))))))))))) (- 1)) (<= (+ ?v_68 (+ (* (- 2) x6) (+ ?v_3 (+ ?v_19 (+ ?v_9 (+ ?v_43 (+ ?v_65 (+ ?v_44 (+ ?v_69 (+ ?v_60 (+ ?v_12 (+ ?v_18 ?v_70)))))))))))) 0) (<= (+ ?v_71 (+ ?v_51 (+ ?v_72 (+ ?v_23 (+ ?v_73 (+ ?v_17 (+ ?v_36 (+ ?v_40 (+ ?v_22 (+ ?v_12 (+ ?v_74 (+ ?v_48 (+ ?v_15 (+ ?v_1 (+ ?v_57 (+ ?v_32 ?v_64)))))))))))))))) 0) (<= (+ ?v_0 (+ ?v_75 (+ ?v_72 (+ ?v_23 (+ ?v_7 (+ ?v_39 (+ ?v_20 (+ ?v_43 (+ ?v_65 (+ ?v_12 (+ ?v_13 (+ ?v_31 (+ ?v_56 (+ ?v_55 ?v_76)))))))))))))) (- 1)) (<= (+ ?v_0 (+ ?v_62 (+ ?v_24 (+ ?v_77 (+ ?v_36 (+ ?v_25 (+ ?v_11 (+ ?v_29 (+ ?v_22 (+ ?v_12 (+ ?v_57 (+ ?v_47 (+ ?v_48 (+ ?v_83 (+ (* 2 x19) (+ (* (- 1) x7) ?v_61)))))))))))))))) 0) (<= (+ ?v_73 (+ ?v_51 (+ ?v_77 (+ ?v_20 (+ ?v_17 (+ ?v_6 (+ ?v_59 (+ ?v_29 (+ ?v_53 (+ ?v_12 (+ ?v_81 (+ ?v_32 (+ ?v_47 (+ ?v_48 (+ ?v_34 (+ ?v_55 ?v_38)))))))))))))))) 1) (<= (+ ?v_51 (+ ?v_3 (+ ?v_7 (+ ?v_43 (+ ?v_35 (+ ?v_24 (+ ?v_78 (+ ?v_26 (+ ?v_40 (+ ?v_69 (+ ?v_60 (+ ?v_12 (+ ?v_48 (+ ?v_18 (+ ?v_13 ?v_42))))))))))))))) 0) (<= (+ ?v_45 (+ ?v_63 (+ ?v_62 (+ ?v_59 (+ ?v_29 (+ ?v_24 (+ ?v_40 (+ ?v_30 (+ ?v_12 (+ ?v_18 (+ ?v_74 (+ ?v_69 (+ ?v_15 (+ ?v_38 ?v_79)))))))))))))) 0) (<= (+ ?v_0 (+ ?v_24 (+ ?v_9 (+ ?v_80 (+ ?v_49 (+ ?v_35 (+ ?v_26 (+ ?v_40 (+ ?v_81 (+ ?v_54 (+ ?v_27 (+ ?v_48 (+ ?v_13 (+ ?v_1 (+ ?v_50 ?v_82))))))))))))))) 1) (<= (+ ?v_0 (+ ?v_19 (+ ?v_80 (+ ?v_59 (+ ?v_26 (+ ?v_36 (+ ?v_53 (+ ?v_30 (+ ?v_27 (+ ?v_18 (+ ?v_83 (+ ?v_1 (+ ?v_57 (+ ?v_28 (+ ?v_50 ?v_70))))))))))))))) 0) (<= (+ (* (- 2) x20) (+ ?v_51 (+ ?v_72 (+ ?v_23 (+ ?v_17 (+ ?v_78 (+ ?v_26 (+ ?v_14 (+ ?v_53 (+ ?v_33 (+ ?v_50 (+ (* 2 x23) (+ ?v_34 ?v_64))))))))))))) 0))))))
(check-sat)
(exit)
